60
23 93
1 7
19 30
23 9
18 81
3 10
15 23
1 68
14 58
22 27
7 38
14 19
4 26
16 21
23 30
4 13
9 65
6 14
5 19
29 69
10 74
27 63
30 74
4 19
5 96
23 85
5 23
19 8
29 68
29 34
18 73
19 22
6 16
14 35
15 10
23 32
26 84
10 31
29 75
22 45
29 45
28 6
4 83
2 68
11 94
6 51
2 98
15 54
10 59
30 50
23 46
2 55
25 78
12 43
7 34
18 26
1 67
21 97
14 96
19 2
